sat
(or (= (:var 0) #x03)
    (= (:var 0) #x01)
    (= (:var 0) #x02)
    (= (:var 0) #x66)
    (= (:var 0) #x67)
    (= (:var 0) #x24)
    (= (:var 0) #x20)
    (= (:var 0) #x13)
    (= (:var 0) #x14)
    (= (:var 0) #x10)
    (= (:var 0) #x15)
    (= (:var 0) #x06)
    (= (:var 0) #x1c)
    (= (:var 0) #x17)
    (= (:var 0) #x25)
    (= (:var 0) #x0a)
    (= (:var 0) #x27))
